<number of tasks>
50

<cycle time>
1000

<order strength>
0.595


<task times>
1 223
2 314
3 77
4 243
5 104
6 203
7 230
8 29
9 225
10 116
11 37
12 270
13 112
14 25
15 208
16 265
17 184
18 243
19 119
20 178
21 195
22 137
23 110
24 61
25 217
26 64
27 216
28 247
29 65
30 97
31 150
32 146
33 57
34 166
35 297
36 163
37 106
38 89
39 162
40 75
41 59
42 167
43 186
44 181
45 128
46 251
47 283
48 176
49 107
50 162

<precedence relations>
1,9
2,9
3,43
4,30
5,6
5,7
5,8
6,9
7,9
8,10
8,11
8,12
8,31
9,13
9,14
9,15
9,16
9,17
9,18
9,20
10,30
12,19
13,38
14,30
15,23
16,21
16,22
17,25
18,21
18,22
18,23
19,25
20,39
21,30
22,24
22,25
22,28
23,24
23,26
23,27
24,30
25,30
26,30
27,37
28,29
28,31
28,38
29,43
30,32
30,33
30,34
30,35
30,36
31,36
31,37
32,38
32,42
33,37
33,38
33,42
34,40
34,41
34,42
34,43
35,39
35,41
36,40
36,41
36,42
36,43
37,43
38,43
40,44
41,45
43,46
43,47
43,48
43,49
43,50

<end>
